NAME : lin105.tsp
COMMENT : Optimal tour for lin105.tsp
TYPE : TOUR
DIMENSION : 105
Total Length: 15318.568691233833
TOUR_SECTION
1
2
6
7
10
11
15
103
21
22
29
30
31
32
33
104
36
37
42
43
46
52
53
58
57
54
51
47
41
44
48
45
40
49
50
55
56
59
105
62
63
70
69
74
75
81
80
76
73
64
67
68
71
78
82
83
84
85
91
92
96
97
101
102
93
86
79
77
72
89
90
98
99
100
95
94
88
87
66
65
61
60
39
38
35
34
14
13
4
5
9
17
16
18
25
26
27
24
19
28
23
20
12
8
3
-1
EOF
